120
1000
199
199
198
198
197
197
197
196
196
196
196
196
195
193
193
193
193
192
192
191
191
191
191
191
190
190
189
189
189
189
188
188
188
188
186
186
185
185
184
184
183
183
183
182
182
182
181
181
179
179
179
178
178
178
178
178
177
176
176
176
175
175
175
174
173
173
173
172
172
170
170
170
170
170
170
169
167
167
167
166
166
165
164
164
164
164
164
163
163
162
161
161
160
160
160
159
159
159
159
158
157
157
157
157
157
156
155
155
154
154
153
153
153
153
152
152
152
151
151
151
